50 8
751 935
318 455
420 521
300 494
643 165
857 459
238 777
690 439
492 21
161 782
376 593
700 526
320 630
274 312
515 226
316 567
802 293
577 627
850 523
539 616
200 367
290 594
699 383
855 337
957 290
625 17
658 221
913 438
709 614
682 754
840 618
641 653
269 309
709 531
212 684
317 460
783 302
809 479
768 280
822 297
816 666
514 553
326 608
337 590
917 903
728 370
928 409
257 582
351 731
685 466
